(set-logic HORN)
(declare-fun inv (Int Int) Bool)
(assert (forall ((y0 Int) (x0 Int)) (=> (and (= x0 0) (= y0 7500)) (inv x0 y0))))
(assert (forall ((y1 Int) (x1 Int) (y0 Int) (x0 Int))
  (let ((a!1 (= x1 (ite (= 0 (mod x0 2)) (+ x0 2) (+ x0 1)))))
  (let ((a!2 (and (inv x0 y0) a!1 (= y1 (ite (>= x0 5000) (+ y0 1) y0)))))
    (=> a!2 (inv x1 y1))))))
(assert (forall ((y0 Int) (x0 Int))
  (=> (and (inv x0 y0) (= x0 10000) (not (= y0 10000))) false)))
(check-sat)
